[[63, 62, 61, 72, 71, 70, 69, 80, 81, 78, 79, 89, 90, 99, 98, 97, 88, 87, 96, 86, 95, 94, 93, 92, 91, 83, 82, 73, 84, 85, 76, 77, 75, 67, 68], [66, 74, 65, 64, 56, 57, 58, 59, 49, 55, 46, 47, 48, 39, 40, 38, 37, 28, 29, 30, 31, 41, 32, 33, 24, 23, 22, 13, 21, 19, 20, 11, 10, 2, 12], [3, 4, 14, 5, 6, 7, 8, 9, 15, 16, 18, 17, 25, 26, 27, 35, 36, 34, 44, 45, 43, 42, 50, 51, 60, 52, 53, 54]]